# Cost: 296

# Tail Head Net
221 201 1
241 221 1
242 241 1
243 242 1
263 243 1
263 264 1
264 265 1
265 266 1
266 267 1
267 268 1
268 269 1
269 270 1
270 271 1
271 272 1
272 273 1
273 673 1
277 278 1
278 279 1
279 280 1
283 263 1
303 283 1
323 303 1
343 323 1
363 343 1
383 363 1
673 674 1
674 675 1
675 676 1
676 677 1
677 277 1
78 79 2
79 80 2
98 78 2
118 98 2
132 133 2
133 134 2
134 135 2
135 136 2
136 137 2
137 138 2
138 118 2
152 132 2
172 152 2
191 192 2
192 172 2
210 211 2
211 191 2
389 789 2
609 610 2
610 210 2
629 609 2
649 629 2
669 649 2
689 669 2
709 689 2
729 709 2
741 341 2
742 741 2
743 742 2
744 743 2
745 744 2
746 745 2
747 746 2
748 747 2
749 729 2
749 748 2
769 749 2
789 769 2
3 4 3
4 5 3
5 405 3
317 318 3
318 319 3
319 320 3
405 425 3
425 445 3
445 465 3
465 466 3
466 486 3
486 487 3
487 488 3
488 489 3
489 509 3
509 510 3
510 530 3
530 550 3
550 570 3
570 590 3
590 591 3
591 611 3
611 631 3
631 651 3
651 671 3
671 691 3
691 692 3
692 712 3
712 713 3
712 732 3
713 714 3
714 715 3
715 716 3
716 717 3
717 317 3
732 752 3
752 772 3
772 792 3
792 392 3
8 9 4
28 8 4
48 28 4
68 48 4
88 68 4
108 88 4
128 108 4
148 128 4
168 148 4
188 168 4
328 728 4
346 347 4
347 348 4
348 328 4
366 346 4
386 366 4
588 188 4
608 588 4
628 608 4
648 628 4
668 648 4
688 668 4
708 688 4
728 708 4
141 161 5
161 162 5
162 182 5
182 202 5
202 203 5
203 223 5
223 224 5
224 244 5
244 245 5
245 246 5
246 247 5
247 248 5
248 249 5
249 250 5
250 251 5
251 252 5
252 253 5
253 254 5
254 274 5
274 294 5
294 314 5
314 334 5
334 335 5
335 336 5
336 337 5
337 357 5
357 358 5
358 359 5
359 360 5
360 380 5
19 419 6
419 439 6
439 459 6
459 479 6
479 499 6
499 519 6
519 539 6
539 559 6
559 579 6
579 599 6
599 619 6
619 639 6
639 659 6
659 679 6
679 699 6
699 719 6
719 739 6
739 759 6
759 779 6
779 799 6
799 399 6
338 738 7
339 338 7
340 339 7
407 7 7
427 407 7
447 427 7
467 447 7
468 467 7
469 468 7
470 469 7
490 470 7
491 490 7
492 491 7
512 492 7
513 512 7
514 513 7
515 514 7
516 515 7
536 516 7
537 536 7
538 537 7
558 538 7
578 558 7
598 578 7
618 598 7
638 618 7
658 638 7
678 658 7
698 678 7
718 698 7
738 718 7
361 362 8
362 762 8
367 387 8
387 388 8
762 763 8
763 764 8
764 765 8
765 766 8
766 767 8
767 367 8
13 12 9
14 13 9
15 14 9
16 15 9
17 16 9
37 17 9
38 37 9
39 38 9
40 39 9
121 122 10
122 123 10
123 143 10
143 144 10
144 164 10
164 184 10
184 185 10
185 205 10
205 225 10
225 226 10
226 227 10
227 228 10
228 229 10
229 230 10
230 231 10
231 232 10
232 233 10
233 234 10
234 235 10
235 236 10
236 256 10
256 276 10
276 296 10
296 297 10
297 298 10
298 299 10
299 300 10
2 1 11
22 2 11
23 22 11
24 23 11
25 24 11
45 25 11
46 45 11
47 46 11
67 47 11
87 67 11
107 87 11
127 107 11
147 127 11
167 147 11
187 167 11
207 187 11
307 707 11
308 307 11
309 308 11
329 309 11
349 329 11
369 349 11
370 369 11
371 370 11
372 371 11
373 372 11
374 373 11
375 374 11
395 375 11
396 395 11
397 396 11
607 207 11
627 607 11
647 627 11
667 647 11
687 667 11
707 687 11
